p cnf 21 48
w 1 1
w 2 0.880797
w 3 0.880797
w 4 1
w 5 0.880797
w 6 0.880797
w 7 1
w 8 0.880797
w 9 1
w 10 0.880797
w 11 0.880797
w 12 1
w 13 0.880797
w 14 0.880797
w 15 1
w 16 0.880797
w 17 1
w 18 0.880797
w 19 1
w 20 0.880797
w 21 1
2 1 4 0
2 -1 -4 0
-2 1 -4 0
-2 -1 4 0
3 1 9 0
3 -1 -9 0
-3 1 -9 0
-3 -1 9 0
5 4 7 0
5 -4 -7 0
-5 4 -7 0
-5 -4 7 0
6 4 12 0
6 -4 -12 0
-6 4 -12 0
-6 -4 12 0
8 7 15 0
8 -7 -15 0
-8 7 -15 0
-8 -7 15 0
10 9 12 0
10 -9 -12 0
-10 9 -12 0
-10 -9 12 0
11 9 17 0
11 -9 -17 0
-11 9 -17 0
-11 -9 17 0
13 12 15 0
13 -12 -15 0
-13 12 -15 0
-13 -12 15 0
14 12 19 0
14 -12 -19 0
-14 12 -19 0
-14 -12 19 0
16 15 21 0
16 -15 -21 0
-16 15 -21 0
-16 -15 21 0
18 17 19 0
18 -17 -19 0
-18 17 -19 0
-18 -17 19 0
20 19 21 0
20 -19 -21 0
-20 19 -21 0
-20 -19 21 0
